4 10 6 18 15 17 8 14 11 12 0 9 13 16 7 2 1 5 3 19  
4 10 6 18 15 17 8 14 11 12 0 16 5 7 9 13 2 3 1 19  
4 10 6 18 15 0 8 14 11 17 12 9 19 16 5 2 7 3 1 13  
4 10 6 15 8 17 18 14 12 0 11 9 19 16 5 2 13 7 1 3  
4 10 6 18 15 17 8 14 11 12 0 9 19 16 5 13 7 2 1 3  
4 10 18 15 6 17 8 14 12 0 11 9 19 16 5 2 7 3 1 13  
4 10 6 18 15 17 8 14 11 12 0 9 19 16 5 13 2 1 7 3  
4 10 6 18 15 17 8 14 11 12 0 16 5 7 9 13 2 1 3 19  
4 15 6 10 18 17 8 14 12 0 11 9 19 16 5 13 7 1 2 3  
4 10 6 15 18 17 8 14 11 12 0 9 19 16 5 2 13 7 1 3  
4 10 6 18 15 17 8 14 11 12 0 9 19 16 5 7 3 13 2 1  
4 10 6 18 15 17 8 14 11 12 0 9 19 16 5 13 7 2 3 1  
4 10 6 18 15 17 8 14 11 12 5 9 2 13 0 1 7 19 16 3  
4 10 6 18 15 17 8 14 11 12 0 9 19 16 5 13 7 3 1 2  
4 10 6 15 8 17 18 14 11 12 0 9 19 16 5 2 13 7 1 3  
4 10 6 15 18 5 14 17 12 2 7 11 9 13 1 0 19 16 3 8  
4 10 6 18 15 17 8 14 11 12 0 9 13 16 5 7 2 1 3 19  
4 10 6 18 15 17 8 14 11 12 0 9 16 1 5 7 13 2 3 19  
4 10 6 18 15 17 8 14 11 12 5 7 2 9 19 0 1 13 16 3  
4 10 6 18 15 17 8 14 11 12 5 7 2 9 19 0 1 13 16 3  
4 10 18 15 6 17 8 14 12 0 11 9 19 16 5 2 7 3 1 13  
4 10 6 18 15 17 8 14 11 12 0 7 5 16 9 13 2 1 3 19  
4 10 6 18 15 0 8 14 11 17 12 9 19 16 5 2 7 3 1 13  
6 10 4 18 15 17 8 14 11 12 0 9 19 16 5 2 7 3 1 13  
4 10 6 15 18 0 8 14 11 17 12 9 19 16 5 2 7 3 1 13  
4 10 6 15 8 17 18 14 11 12 0 9 19 16 5 13 7 3 1 2  
4 10 6 18 15 17 8 14 11 12 0 9 19 16 5 13 7 3 1 2  
4 10 6 18 15 17 8 14 11 12 0 9 13 16 5 7 2 1 3 19  
4 10 6 18 15 17 8 14 11 12 0 1 5 2 9 13 7 3 19 16  
4 10 6 18 15 17 8 14 11 12 0 9 19 16 5 13 2 7 3 1  
4 10 6 18 15 17 8 14 11 12 0 9 19 16 5 3 2 1 7 13  
4 10 6 18 15 17 8 14 11 12 0 9 13 16 5 2 7 19 3 1  
4 10 6 15 8 17 18 14 11 12 0 9 13 16 7 1 5 2 3 19  
4 10 6 15 17 11 18 12 0 14 1 7 5 13 2 9 19 16 3 8  
4 10 6 15 18 17 8 14 11 12 0 9 13 16 7 2 1 5 3 19  
4 10 6 18 15 17 8 14 11 12 0 9 13 16 7 5 2 3 1 19  
4 10 6 18 15 17 8 14 11 12 5 7 2 9 13 1 0 19 16 3  
4 10 6 15 8 17 18 14 11 12 0 9 19 16 5 7 3 13 2 1  
4 10 6 18 15 17 8 14 11 12 0 1 5 2 9 19 7 3 13 16  
6 10 4 15 18 11 5 9 13 19 12 0 2 16 17 1 7 3 14 8  
4 10 6 18 15 17 8 14 11 12 0 9 19 16 5 13 2 1 7 3  
4 10 6 15 8 17 18 14 11 0 12 9 19 16 5 13 7 2 3 1  
4 10 6 18 15 17 8 14 11 12 0 9 19 16 5 3 2 1 7 13  
4 10 18 15 6 11 17 1 0 14 12 7 5 9 2 13 19 16 3 8  
4 10 6 18 15 17 11 12 7 9 19 16 5 2 0 1 13 3 14 8  
4 10 6 18 15 17 8 14 11 12 0 9 19 16 1 5 7 13 2 3  
4 10 6 18 15 17 8 14 11 12 0 7 5 16 9 13 2 1 3 19  
4 10 6 18 15 17 8 14 11 12 0 1 5 2 9 13 7 3 19 16  
4 10 6 18 15 17 8 14 11 12 0 9 19 16 5 13 7 2 1 3  
